10	6	3.2
2 4 1 2 2 7 5 9 6 6 4 1 3 3 3 5 8 6 8
2 4 1 5 3 2 4 2 6 2 1 5 7
2 2 2 9 5 6 4 1 3 4 4 5 9 6 9
2 1 4 6 6 1 9 2 6 3 9 4 1 5 1 6 8
2 4 1 5 2 6 3 4 6 7 2 1 8 6 2
2 4 1 2 3 9 4 2 6 6 6 1 6 2 2 3 6 4 9 5 9 6 5
2 1 5 3 4 1 9 2 9 4 6 5 1
2 3 1 8 3 7 4 4 1 2 7
2 3 2 8 5 2 6 9 6 1 1 2 2 3 9 4 8 5 8 6 8
2 1 5 7 3 2 7 4 9 6 2
